\* Problem: Unknown *\

Maximize
 obj: + xp_0_0 + xp_1_0 + xp_1_1 + xp_2_0 + xp_3_0 + xp_4_0 + xp_5_0
 + xp_6_0 + xp_7_0 + xp_8_0 + xp_9_0 + xp_9_1 + xp_10_0 + xp_11_0
 + xp_11_1 + xp_12_0 + xp_12_1 + xp_13_0 + xp_14_0 + xp_14_1 + xp_15_0
 + xp_16_0 + xp_17_0 + xp_17_1 + xp_18_0 + xp_18_1 + xp_19_0 + xp_19_1
 + xp_20_0 + xp_21_0 + xp_22_0 + xp_22_1 + xp_23_0 + xp_24_0 + xp_24_1
 + xp_25_0 + xp_26_0 + xp_27_0 + xp_28_0 + xp_28_1 + xp_29_0 + xp_30_0
 + xp_31_0 + xp_32_0 + xp_33_0 + xp_34_0 + xp_34_1 + xp_35_0 + xp_36_0
 + xp_37_0 + xp_38_0 + xp_39_0 + xp_40_0 + xp_40_1 + xp_41_0 + xp_42_0
 + xp_42_1 + xp_42_2 + xp_43_0 + xp_44_0 + xp_45_0 + xp_46_0 + xp_47_0
 + xp_48_0 + xp_49_0 + xp_50_0 + xp_50_1 + xp_51_0 + xp_52_0 + xp_53_0
 + xp_54_0 + xp_55_0 + xp_56_0 + xp_57_0 + xp_58_0 + xp_58_1 + xp_59_0
 + xp_60_0 + xp_60_1 + xp_61_0 + xp_61_1 + xp_62_0 + xp_63_0 + xp_63_1
 + xp_64_0 + xp_65_0 + xp_65_1 + xp_66_0 + xp_67_0 + xp_68_0 + xp_68_1
 + xp_68_2 + xp_69_0 + xp_70_0 + xp_71_0 + xp_72_0 + xp_73_0 + xp_74_0
 + xp_75_0 + xp_76_0 + xp_77_0 + xp_77_1 + xp_78_0 + xp_78_1 + xp_78_2
 + xp_79_0 + xp_79_1 + xp_79_2 + xp_80_0 + xp_80_1 + xp_81_0 + xp_81_1
 + xp_82_0 + xp_83_0 + xp_84_0 + xp_85_0 + xp_85_1 + xp_86_0 + xp_86_1
 + xp_87_0 + xp_88_0 + xp_89_0 + xp_90_0 + xp_90_1 + xp_91_0 + xp_91_1
 + xp_91_2 + xp_92_0 + xp_93_0 + xp_94_0 + xp_94_1 + xp_95_0 + xp_96_0
 + xp_97_0 + xp_98_0 + xp_99_0 + xp_100_0 + xp_101_0 + xp_102_0
 + xp_103_0 + xp_104_0 + xp_105_0 + xp_106_0 + xp_107_0 + xp_108_0
 + xp_108_1 + xp_108_2 + xp_109_0 + xp_109_1 + xp_110_0 + xp_111_0
 + xp_111_1 + xp_112_0 + xp_113_0 + xp_114_0 + xp_115_0 + xp_115_1
 + xp_116_0 + xp_116_1 + xp_117_0 + xp_118_0 + xp_119_0 + xp_120_0
 + xp_120_1 + xp_121_0 + xp_122_0 + xp_123_0 + xp_124_0 + xp_125_0
 + xp_125_1 + xp_126_0 + xp_126_1 + xp_126_2 + xp_126_3 + xp_127_0
 + xp_127_1 + xp_128_0 + xp_128_1 + xp_129_0 + xp_129_1 + xp_130_0
 + xp_131_0 + xp_131_1 + xp_131_2

Subject To
 r_1: + xp_128_1 + xp_122_0 + xp_121_0 + xp_108_2 + xp_107_0 + xp_78_2
 + xp_40_1 + xp_25_0 + xp_22_1 + xp_18_0 + xp_16_0 + xp_4_0
 <= 39033.1753554502
 r_2: + xp_131_2 + xp_131_1 + xp_127_1 + xp_126_1 + xp_120_0 + xp_94_1
 + xp_93_0 + xp_90_1 + xp_85_1 + xp_85_0 + xp_77_1 + xp_75_0 + xp_71_0
 + xp_66_0 + xp_65_1 + xp_65_0 + xp_61_1 + xp_55_0 + xp_52_0 + xp_48_0
 + xp_42_2 + xp_42_1 + xp_32_0 + xp_28_1 + xp_28_0 + xp_24_0 + xp_19_1
 + xp_19_0 + xp_12_1 + xp_1_1 <= 35616.5025785279
 r_3: + xp_126_3 + xp_114_0 + xp_95_0 + xp_91_1 + xp_79_1 + xp_76_0
 + xp_34_0 <= 40000
 r_4: + xp_117_0 + xp_111_1 + xp_91_2 + xp_91_0 + xp_84_0 + xp_79_2
 + xp_79_0 + xp_46_0 + xp_43_0 + xp_40_1 + xp_40_0 + xp_34_1
 <= 38066.6125101544
 r_5: + xp_130_0 + xp_111_1 + xp_99_0 + xp_86_0 + xp_65_1 + xp_7_0
 + xp_2_0 <= 40000
 r_6: + xp_126_3 + xp_126_2 + xp_119_0 + xp_114_0 + xp_95_0 + xp_91_1
 + xp_83_0 + xp_81_0 + xp_79_1 + xp_70_0 + xp_68_1 + xp_58_1 + xp_53_0
 + xp_45_0 + xp_34_0 + xp_18_0 <= 40000
 r_7: + xp_104_0 + xp_88_0 + xp_82_0 + xp_81_1 + xp_78_1 + xp_50_1
 + xp_44_0 + xp_27_0 + xp_18_1 <= 38066.6125101544
 r_8: + xp_131_2 + xp_131_1 + xp_127_1 + xp_126_1 + xp_120_0 + xp_118_0
 + xp_103_0 + xp_94_1 + xp_90_1 + xp_77_1 + xp_71_0 + xp_61_1 + xp_55_0
 + xp_42_2 + xp_42_1 + xp_32_0 + xp_24_0 + xp_12_1 + xp_1_1
 <= 39033.1753554502
 r_9: + xp_131_0 + xp_127_0 + xp_122_0 + xp_120_1 + xp_108_2 + xp_78_2
 + xp_77_0 + xp_42_0 + xp_33_0 + xp_24_1 <= 40000
 r_10: + xp_111_1 + xp_106_0 + xp_99_0 + xp_98_0 + xp_94_1 + xp_88_0
 + xp_86_0 + xp_85_0 + xp_78_1 + xp_65_1 + xp_50_1 + xp_26_0 + xp_24_0
 + xp_8_0 + xp_7_0 + xp_2_0 <= 40000
 r_11: + xp_119_0 + xp_112_0 + xp_111_0 + xp_95_0 + xp_91_1 + xp_81_0
 + xp_79_1 + xp_78_2 + xp_78_0 + xp_59_0 + xp_53_0 + xp_50_0 + xp_49_0
 + xp_45_0 + xp_34_0 + xp_18_0 + xp_4_0 + xp_3_0 <= 36907.0825211176
 r_12: + xp_129_0 + xp_128_0 + xp_123_0 + xp_117_0 + xp_111_1 + xp_108_1
 + xp_101_0 + xp_91_2 + xp_82_0 + xp_81_1 + xp_80_1 + xp_79_2 + xp_78_1
 + xp_78_0 + xp_73_0 + xp_63_1 + xp_60_0 + xp_50_1 + xp_46_0 + xp_44_0
 + xp_40_0 + xp_18_1 + xp_17_1 + xp_15_0 + xp_14_1 + xp_13_0 + xp_9_0
 <= 36841.7680973735
 r_13: + xp_129_1 + xp_128_1 + xp_120_1 + xp_109_1 + xp_100_0 + xp_91_0
 + xp_90_0 + xp_80_0 + xp_79_0 + xp_68_0 + xp_63_0 + xp_60_1 + xp_40_1
 + xp_34_1 + xp_31_0 + xp_30_0 + xp_17_0 + xp_9_1 <= 36907.0825211176
 r_14: + xp_131_2 + xp_131_1 + xp_131_0 + xp_126_3 + xp_126_2 + xp_125_1
 + xp_125_0 + xp_124_0 + xp_115_1 + xp_115_0 + xp_94_0 + xp_86_1
 + xp_85_1 + xp_77_1 + xp_77_0 + xp_68_1 + xp_65_0 + xp_58_1 + xp_56_0
 + xp_51_0 + xp_41_0 + xp_38_0 + xp_35_0 + xp_24_1 + xp_20_0 + xp_19_1
 + xp_19_0 + xp_12_1 + xp_12_0 + xp_0_0 <= 38066.6125101544
 r_15: + xp_131_2 + xp_131_0 + xp_126_3 + xp_126_2 + xp_125_0 + xp_124_0
 + xp_120_1 + xp_116_0 + xp_115_0 + xp_109_1 + xp_94_0 + xp_90_0
 + xp_89_0 + xp_86_1 + xp_85_1 + xp_77_1 + xp_77_0 + xp_68_1 + xp_68_0
 + xp_65_0 + xp_58_1 + xp_51_0 + xp_42_2 + xp_42_0 + xp_38_0 + xp_36_0
 + xp_28_1 + xp_24_1 + xp_19_1 + xp_12_0 + xp_11_0 + xp_0_0
 <= 36841.7680973735
 r_16: + xp_128_0 + xp_123_0 + xp_108_1 + xp_108_0 + xp_78_1 + xp_78_0
 + xp_73_0 + xp_67_0 + xp_57_0 + xp_46_0 + xp_44_0 + xp_40_0 + xp_22_0
 + xp_18_1 + xp_13_0 + xp_6_0 <= 36841.7680973735
 r_17: + xp_129_0 + xp_126_0 + xp_111_1 + xp_109_0 + xp_97_0 + xp_91_2
 + xp_81_1 + xp_80_1 + xp_79_2 + xp_68_2 + xp_63_1 + xp_62_0 + xp_61_0
 + xp_60_0 + xp_47_0 + xp_22_1 + xp_17_1 + xp_9_0 + xp_1_0
 <= 35616.5025785279
 r_18: + xp_126_1 + xp_126_0 + xp_106_0 + xp_99_0 + xp_98_0 + xp_94_1
 + xp_92_0 + xp_86_0 + xp_85_0 + xp_68_2 + xp_68_0 + xp_65_1 + xp_58_0
 + xp_48_0 + xp_32_0 + xp_30_0 + xp_26_0 + xp_24_0 + xp_5_0 + xp_2_0
 <= 36907.0825211176
 r_19: + xp_131_1 + xp_125_1 + xp_116_1 + xp_115_1 + xp_110_0 + xp_108_1
 + xp_78_0 + xp_56_0 + xp_42_1 + xp_28_0 + xp_19_0 + xp_14_1 + xp_12_1
 + xp_11_1 + xp_3_0 <= 36907.0825211176
 r_20: + xp_129_1 + xp_128_1 + xp_119_0 + xp_112_0 + xp_111_0 + xp_108_2
 + xp_108_0 + xp_107_0 + xp_95_0 + xp_91_1 + xp_91_0 + xp_81_0 + xp_80_0
 + xp_79_1 + xp_79_0 + xp_78_2 + xp_69_0 + xp_64_0 + xp_63_0 + xp_60_1
 + xp_50_0 + xp_49_0 + xp_45_0 + xp_40_1 + xp_18_0 + xp_17_0 + xp_14_0
 + xp_10_0 + xp_9_1 + xp_4_0 <= 35616.5025785279
 r_21: + xp_126_3 + xp_113_0 + xp_86_1 + xp_77_1 + xp_77_0 + xp_65_0
 + xp_38_0 + xp_20_0 + xp_0_0 <= 38066.6125101544
 r_22: + xp_126_2 + xp_124_0 + xp_105_0 + xp_94_0 + xp_85_1 + xp_83_0
 + xp_68_1 + xp_58_1 + xp_41_0 + xp_24_1 <= 38066.6125101544
 r_23: + xp_128_1 + xp_128_0 + xp_117_0 + xp_111_1 + xp_104_0 + xp_100_0
 + xp_91_2 + xp_91_0 + xp_84_0 + xp_82_0 + xp_81_1 + xp_80_1 + xp_80_0
 + xp_79_2 + xp_79_0 + xp_78_1 + xp_73_0 + xp_60_1 + xp_60_0 + xp_50_1
 + xp_46_0 + xp_44_0 + xp_40_1 + xp_40_0 + xp_34_1 + xp_21_0 + xp_18_1
 + xp_15_0 + xp_9_1 + xp_9_0 <= 38066.6125101544
 r_24: + xp_128_0 + xp_126_1 + xp_103_0 + xp_94_1 + xp_90_1 + xp_61_1
 + xp_40_0 + xp_39_0 + xp_22_0 + xp_18_1 + xp_13_0 + xp_12_1 + xp_1_1
 <= 40000
 r_25: + xp_131_0 + xp_127_0 + xp_126_3 + xp_126_2 + xp_126_0 + xp_120_1
 + xp_94_0 + xp_90_0 + xp_89_0 + xp_77_0 + xp_74_0 + xp_61_0 + xp_42_0
 + xp_38_0 + xp_24_1 + xp_12_0 + xp_1_0 <= 36841.7680973735
 r_26: + xp_128_1 + xp_121_0 + xp_112_0 + xp_108_2 + xp_107_0 + xp_81_1
 + xp_81_0 + xp_79_2 + xp_79_1 + xp_79_0 + xp_78_2 + xp_64_0 + xp_60_1
 + xp_60_0 + xp_47_0 + xp_40_1 + xp_37_0 + xp_29_0 + xp_25_0 + xp_22_1
 + xp_18_0 + xp_17_1 + xp_17_0 + xp_4_0 <= 35616.5025785279
 r_27: + xp_131_2 + xp_127_1 + xp_125_0 + xp_116_0 + xp_115_0 + xp_108_0
 + xp_86_1 + xp_85_1 + xp_77_1 + xp_72_0 + xp_67_0 + xp_65_0 + xp_58_1
 + xp_57_0 + xp_52_0 + xp_50_0 + xp_42_2 + xp_28_1 + xp_23_0 + xp_19_1
 + xp_14_0 + xp_11_0 <= 35616.5025785279
 r_28: + xp_131_1 + xp_126_1 + xp_126_0 + xp_125_1 + xp_120_0 + xp_116_1
 + xp_115_1 + xp_109_0 + xp_99_0 + xp_98_0 + xp_96_0 + xp_94_1 + xp_92_0
 + xp_90_1 + xp_86_0 + xp_85_0 + xp_75_0 + xp_68_2 + xp_65_1 + xp_58_0
 + xp_54_0 + xp_48_0 + xp_42_1 + xp_32_0 + xp_28_0 + xp_26_0 + xp_24_0
 + xp_19_0 + xp_12_1 + xp_11_1 <= 35616.5025785279
 r_29: + xp_129_1 + xp_129_0 + xp_95_0 + xp_93_0 + xp_87_0 + xp_71_0
 + xp_62_0 + xp_49_0 + xp_45_0 + xp_10_0 + xp_9_1 + xp_9_0 + xp_1_1
 + xp_1_0 <= 35616.5025785279
 r_30: + xp_125_1 + xp_125_0 + xp_121_0 + xp_102_0 + xp_99_0 + xp_96_0
 + xp_92_0 + xp_57_0 + xp_37_0 + xp_26_0 + xp_23_0 + xp_11_1 + xp_11_0
 <= 35616.5025785279

Bounds
 0 <= xp_0_0 <= 235.013897877271
 0 <= xp_1_0 <= 151.533635270028
 0 <= xp_1_1 <= 30.3067270540056
 0 <= xp_2_0 <= 114.552863630122
 0 <= xp_3_0 <= 181.577776963277
 0 <= xp_4_0 <= 785.721045724317
 0 <= xp_5_0 <= 1079.02889368958
 0 <= xp_6_0 <= 1784.72705072329
 0 <= xp_7_0 <= 635.719158392037
 0 <= xp_8_0 <= 1503.6950683734
 0 <= xp_9_0 <= 71.8608603937577
 0 <= xp_9_1 <= 35.9304301968788
 0 <= xp_10_0 <= 54.6177550373993
 0 <= xp_11_0 <= 34.4643285993204
 0 <= xp_11_1 <= 6.89286571986409
 0 <= xp_12_0 <= 1715.72180612776
 0 <= xp_12_1 <= 343.144361225551
 0 <= xp_13_0 <= 250.965958543242
 0 <= xp_14_0 <= 73.0206124037666
 0 <= xp_14_1 <= 146.041224807533
 0 <= xp_15_0 <= 505.082941415565
 0 <= xp_16_0 <= 2630.38320504033
 0 <= xp_17_0 <= 246.556712693869
 0 <= xp_17_1 <= 49.3113425387737
 0 <= xp_18_0 <= 178.787807505237
 0 <= xp_18_1 <= 178.787807505237
 0 <= xp_19_0 <= 702.941010745759
 0 <= xp_19_1 <= 351.470505372879
 0 <= xp_20_0 <= 127.747778008148
 0 <= xp_21_0 <= 273.417006887942
 0 <= xp_22_0 <= 1022.71527486396
 0 <= xp_22_1 <= 204.543054972792
 0 <= xp_23_0 <= 51.7949624092644
 0 <= xp_24_0 <= 226.21728829192
 0 <= xp_24_1 <= 113.10864414596
 0 <= xp_25_0 <= 576.571805881584
 0 <= xp_26_0 <= 15.2955972640794
 0 <= xp_27_0 <= 336.634432490124
 0 <= xp_28_0 <= 443.331617410941
 0 <= xp_28_1 <= 221.665808705471
 0 <= xp_29_0 <= 2438.7615380281
 0 <= xp_30_0 <= 182.693764746493
 0 <= xp_31_0 <= 189.914862167303
 0 <= xp_32_0 <= 2242.93850524377
 0 <= xp_33_0 <= 8030.31985632204
 0 <= xp_34_0 <= 254.510860913458
 0 <= xp_34_1 <= 254.510860913458
 0 <= xp_35_0 <= 260.090799829538
 0 <= xp_36_0 <= 317.793932855829
 0 <= xp_37_0 <= 363.549431967689
 0 <= xp_38_0 <= 333.614700841422
 0 <= xp_39_0 <= 1567.76589639804
 0 <= xp_40_0 <= 705.096398915304
 0 <= xp_40_1 <= 141.019279783061
 0 <= xp_41_0 <= 79.6290106494775
 0 <= xp_42_0 <= 301.71057950948
 0 <= xp_42_1 <= 75.4276448773699
 0 <= xp_42_2 <= 75.4276448773699
 0 <= xp_43_0 <= 490.312514872999
 0 <= xp_44_0 <= 456.964174056895
 0 <= xp_45_0 <= 42.4075357622115
 0 <= xp_46_0 <= 1599.86695675055
 0 <= xp_47_0 <= 875.853470804064
 0 <= xp_48_0 <= 2896.25088280651
 0 <= xp_49_0 <= 87.7691568329361
 0 <= xp_50_0 <= 651.321105243665
 0 <= xp_50_1 <= 130.264221048733
 0 <= xp_51_0 <= 707.076730177677
 0 <= xp_52_0 <= 660.073950602223
 0 <= xp_53_0 <= 189.258398765411
 0 <= xp_54_0 <= 3680.59335538686
 0 <= xp_55_0 <= 1181.04330634357
 0 <= xp_56_0 <= 95.4497786350703
 0 <= xp_57_0 <= 205.341752111761
 0 <= xp_58_0 <= 3775.53984541381
 0 <= xp_58_1 <= 755.107969082762
 0 <= xp_59_0 <= 10607.2012941082
 0 <= xp_60_0 <= 225.166946848894
 0 <= xp_60_1 <= 450.333893697787
 0 <= xp_61_0 <= 1205.82479976499
 0 <= xp_61_1 <= 1205.82479976499
 0 <= xp_62_0 <= 130.76750965685
 0 <= xp_63_0 <= 109.465272265461
 0 <= xp_63_1 <= 21.8930544530921
 0 <= xp_64_0 <= 990.931505155699
 0 <= xp_65_0 <= 433.81289808351
 0 <= xp_65_1 <= 86.762579616702
 0 <= xp_66_0 <= 1674.1786138447
 0 <= xp_67_0 <= 403.199821441955
 0 <= xp_68_0 <= 978.830696447494
 0 <= xp_68_1 <= 244.707674111873
 0 <= xp_68_2 <= 244.707674111873
 0 <= xp_69_0 <= 1712.64736919556
 0 <= xp_70_0 <= 629.482756074064
 0 <= xp_71_0 <= 70.6354620435596
 0 <= xp_72_0 <= 596.987817680419
 0 <= xp_73_0 <= 919.836518730815
 0 <= xp_74_0 <= 949.96818887765
 0 <= xp_75_0 <= 1757.9433439261
 0 <= xp_76_0 <= 1716.19227156578
 0 <= xp_77_0 <= 475.170092402694
 0 <= xp_77_1 <= 95.0340184805388
 0 <= xp_78_0 <= 4649.60992397607
 0 <= xp_78_1 <= 13948.8297719282
 0 <= xp_78_2 <= 9299.21984795213
 0 <= xp_79_0 <= 531.013245790292
 0 <= xp_79_1 <= 177.004415263431
 0 <= xp_79_2 <= 354.008830526861
 0 <= xp_80_0 <= 149.848712538506
 0 <= xp_80_1 <= 74.9243562692528
 0 <= xp_81_0 <= 216.742333191282
 0 <= xp_81_1 <= 43.3484666382564
 0 <= xp_82_0 <= 219.127483551489
 0 <= xp_83_0 <= 502.325795127619
 0 <= xp_84_0 <= 887.34158033717
 0 <= xp_85_0 <= 339.555694628543
 0 <= xp_85_1 <= 67.9111389257086
 0 <= xp_86_0 <= 85.4715349263147
 0 <= xp_86_1 <= 85.4715349263147
 0 <= xp_87_0 <= 140.877046045984
 0 <= xp_88_0 <= 424.009711281925
 0 <= xp_89_0 <= 2214.51363994186
 0 <= xp_90_0 <= 14427.8839394588
 0 <= xp_90_1 <= 7213.94196972938
 0 <= xp_91_0 <= 1356.87702854029
 0 <= xp_91_1 <= 452.292342846764
 0 <= xp_91_2 <= 904.584685693529
 0 <= xp_92_0 <= 66.6966816322087
 0 <= xp_93_0 <= 130.111046254958
 0 <= xp_94_0 <= 197.048431134527
 0 <= xp_94_1 <= 39.4096862269055
 0 <= xp_95_0 <= 61.1823890563174
 0 <= xp_96_0 <= 115.143680691825
 0 <= xp_97_0 <= 526.221062956481
 0 <= xp_98_0 <= 142.715143571281
 0 <= xp_99_0 <= 16.3459387071063
 0 <= xp_100_0 <= 502.128856107052
 0 <= xp_101_0 <= 249.456092718891
 0 <= xp_102_0 <= 74.8368278156672
 0 <= xp_103_0 <= 1437.39226478232
 0 <= xp_104_0 <= 131.686558419499
 0 <= xp_105_0 <= 1447.50180117146
 0 <= xp_106_0 <= 41.3571943191845
 0 <= xp_107_0 <= 449.020966894004
 0 <= xp_108_0 <= 565.12746057527
 0 <= xp_108_1 <= 141.281865143817
 0 <= xp_108_2 <= 141.281865143817
 0 <= xp_109_0 <= 643.421662307567
 0 <= xp_109_1 <= 321.710831153784
 0 <= xp_110_0 <= 132.999485223282
 0 <= xp_111_0 <= 2433.50983081297
 0 <= xp_111_1 <= 486.701966162594
 0 <= xp_112_0 <= 4673.82248244918
 0 <= xp_113_0 <= 424.731821024006
 0 <= xp_114_0 <= 2393.99073401908
 0 <= xp_115_0 <= 147.047802023767
 0 <= xp_115_1 <= 73.5239010118836
 0 <= xp_116_0 <= 132.879133599602
 0 <= xp_116_1 <= 26.5758267199204
 0 <= xp_117_0 <= 1940.17758429127
 0 <= xp_118_0 <= 3149.71140227694
 0 <= xp_119_0 <= 62.6922548806686
 0 <= xp_120_0 <= 1805.16494463552
 0 <= xp_120_1 <= 361.032988927103
 0 <= xp_121_0 <= 75.4276448773699
 0 <= xp_122_0 <= 2271.16643152512
 0 <= xp_123_0 <= 513.026148578456
 0 <= xp_124_0 <= 137.463436356147
 0 <= xp_125_0 <= 18.162154119007
 0 <= xp_125_1 <= 9.08107705950348
 0 <= xp_126_0 <= 4223.14941599375
 0 <= xp_126_1 <= 8446.29883198749
 0 <= xp_126_2 <= 8446.29883198749
 0 <= xp_126_3 <= 4223.14941599375
 0 <= xp_127_0 <= 191.971780826564
 0 <= xp_127_1 <= 383.943561653128
 0 <= xp_128_0 <= 337.914536123813
 0 <= xp_128_1 <= 67.5829072247627
 0 <= xp_129_0 <= 32.604348960627
 0 <= xp_129_1 <= 16.3021744803135
 0 <= xp_130_0 <= 403.002882421387
 0 <= xp_131_0 <= 255.517438129692
 0 <= xp_131_1 <= 255.517438129692
 0 <= xp_131_2 <= 255.517438129692

End
